COLUMNS

passenger_count
pickup_ID
dropoff_ID
request_time_sec
pickup_district
dropoff_district
LDuals
IDuals
vehicle_ID
pick_position
drop_position

REQUESTS_INFO
1      984       719       30476     291       189       345       345       24        1         2         
3      455       687       30548     52        131       132       132       34        1         2         
1      1188      604       30548     192       189       148       148       60        1         3         
1      814       696       30540     290       189       154       154       77        1         3         
1      925       834       30569     290       290       169.5     169.5     136       1         4         
1      962       871       30402     291       291       411       411       139       1         3         
1      841       396       30559     290       119       161       161       167       1         3         
1      1132      963       30557     291       50        174       174       196       1         4         
2      772       358       30527     290       168       175       175       214       1         2         
1      549       646       30553     52        280       93        93        216       1         2         
1      680       849       30560     290       291       109       109       289       1         4         
2      992       1026      30551     290       291       187       187       350       1         3         
3      882       719       30511     290       189       210       210       364       1         3         
1      950       748       30369     290       290       360       360       385       1         2         
1      791       674       30565     290       189       146       146       389       1         3         
1      791       606       30568     290       189       143       143       389       2         4         
1      858       585       30553     290       999       148       148       405       1         3         
3      905       652       30565     290       189       185       185       418       1         3         
1      936       719       30547     291       189       188       188       454       1         3         
1      946       605       30546     290       189       193       193       462       1         4         
1      905       652       30559     290       189       139.5     139.5     483       1         4         
1      1025      760       30337     291       291       469       469       491       1         3         
3      908       440       30428     290       168       364       364       499       1         2         
3      1025      710       30554     291       131       253       253       514       1         2         
1      817       859       30555     290       290       158.5     158.5     535       1         2         
1      770       134       30431     290       9         286       286       543       1         3         
1      1031      1196      30529     50        129       170       170       555       1         3         
1      1026      696       30565     291       189       241       241       585       1         3         
4      969       738       30400     290       189       338       338       597       1         2         
1      1005      627       30531     50        189       255       255       603       1         3         
2      860       605       30554     290       189       171       171       623       1         3         
1      663       476       30527     131       52        159       159       627       1         2         
1      886       1218      30334     290       84        438       438       637       1         2         
1      863       1032      30365     290       84        397       397       647       1         2         
1      325       412       30567     299       52        132       132       687       1         2         
3      908       440       30428     290       168       364       364       694       1         2         
1      791       509       30551     290       199       160       160       725       1         3         
1      791       527       30512     290       52        199       199       767       1         2         
1      992       48        30547     290       98        173       173       786       1         3         
2      892       805       30547     291       291       221       221       798       1         2         
1      1086      652       30553     291       189       157       157       845       1         4         
2      291       526       30521     87        52        205       205       846       1         2         
3      893       1065      30544     291       291       205       205       875       1         2         
1      60        436       30540     9         100       133       133       876       1         2         
2      925       925       30483     290       290       267       267       891       1         2         
1      348       414       30541     299       100       175       175       914       1         2         
3      1044      489       30563     291       199       190       190       921       1         2         
4      945       651       30206     50        189       564       564       923       1         2         
1      916       593       30491     291       52        255       255       935       1         3         
1      959       694       30498     291       189       271       271       977       1         2         
1      946       787       30532     290       50        233       233       1041      1         2         
3      838       622       30444     290       280       281       281       1066      1         2         
1      1004      676       30471     291       189       349       349       1070      1         2         
1      961       894       30520     291       291       220.5     220.5     1103      1         3         
3      961       1160      30556     291       84        240.5     240.5     1103      2         4         
3      1044      408       30478     291       299       275       275       1105      1         2         
1      941       632       30520     50        189       183       183       1106      1         3         
1      1107      699       30556     291       290       162       162       1109      1         3         
2      1025      710       30554     291       131       253       253       1109      2         4         
1      827       673       30557     291       189       139       139       1117      1         2         
3      1044      489       30563     291       199       190       190       1125      1         3         
2      455       687       30548     52        131       132       132       1136      1         3         
1      936       716       30538     291       189       216       216       1148      1         3         
1      1068      671       30456     291       280       327       327       1207      1         2         
1      861       824       30561     290       291       168.5     168.5     1258      1         4         
1      1115      1116      30518     84        84        137       137       1260      1         2         
1      1044      740       30458     291       50        221       221       1269      1         3         
1      941       739       30541     50        189       214       214       1274      1         3         
1      461       372       30548     189       119       129       129       1284      1         2         
1      909       817       30511     290       290       204       204       1310      1         2         
3      984       1127      30503     291       291       318       318       1319      1         2         
3      1001      1160      30288     291       84        484       484       1415      1         2         
2      961       1160      30556     291       84        240.5     240.5     1568      1         3         
1      458       600       30546     52        280       148       148       1732      1         2         
1      345       674       30522     299       189       174       174       1768      1         2         
3      907       489       30135     290       199       609       609       1770      1         2         
3      815       557       30409     290       189       325       325       1801      1         2         
3      506       616       30528     189       131       198       198       1819      1         2         
3      984       1127      30503     291       291       313.5     313.5     1851      1         3         
4      642       756       30568     131       131       126       126       1864      1         2         
1      940       970       30505     291       290       268.5     268.5     1882      1         3         
1      924       604       30515     290       189       230       230       1911      1         2         
1      889       925       30449     290       290       316       316       1913      1         2         
1      893       1088      30519     291       291       230       230       1923      1         2         
3      926       699       30505     290       290       264       264       1932      1         3         
2      481       572       30517     189       131       154       154       1952      1         2         
2      465       35        30552     199       98        136       136       1978      1         3         
1      325       410       30561     299       52        138       138       1986      1         2         
1      338       727       30553     277       290       147       147       1996      1         4         
1      970       602       30570     290       189       0         0         0         0         0         
2      395       291       30570     100       87        0         0         0         0         0         
1      655       554       30570     189       189       0         0         0         0         0         
1      950       535       30570     290       189       0         0         0         0         0         
2      304       232       30570     299       266       0         0         0         0         0         
3      656       554       30570     290       189       0         0         0         0         0         
3      304       232       30570     299       266       0         0         0         0         0         
2      656       554       30570     290       189       0         0         0         0         0         
1      311       605       30571     87        189       0         0         0         0         0         
2      549       376       30571     52        168       0         0         0         0         0         
3      549       376       30571     52        168       0         0         0         0         0         
1      348       414       30571     299       100       0         0         0         0         0         
1      703       356       30571     290       119       0         0         0         0         0         
1      552       671       30571     189       280       0         0         0         0         0         
1      44        80        30571     98        98        0         0         0         0         0         
1      331       533       30571     127       199       0         0         0         0         0         
1      702       580       30571     290       189       0         0         0         0         0         
3      1386      881       30572     129       290       0         0         0         0         0         
1      666       626       30572     131       189       0         0         0         0         0         
1      480       410       30573     52        52        0         0         0         0         0         
1      818       559       30573     290       189       0         0         0         0         0         
1      702       928       30574     290       290       0         0         0         0         0         
1      253       219       30574     206       87        0         0         0         0         0         
1      646       693       30574     280       280       0         0         0         0         0         
1      397       531       30574     168       189       0         0         0         0         0         
1      1111      782       30574     50        291       0         0         0         0         0         
1      171       153       30574     286       286       0         0         0         0         0         
3      211       875       30574     266       291       0         0         0         0         0         
2      211       875       30574     266       291       0         0         0         0         0         
1      273       291       30575     206       87        0         0         0         0         0         
3      885       698       30575     290       189       0         0         0         0         0         
2      885       698       30575     290       189       0         0         0         0         0         
1      173       10        30575     286       98        0         0         0         0         0         
1      375       303       30575     119       299       0         0         0         0         0         
1      336       535       30575     277       189       0         0         0         0         0         
1      654       581       30575     189       189       0         0         0         0         0         
1      862       649       30576     290       189       0         0         0         0         0         
1      717       768       30576     189       290       0         0         0         0         0         
3      374       627       30576     119       189       0         0         0         0         0         
3      374       627       30576     119       189       0         0         0         0         0         
1      905       1595      30577     290       296       0         0         0         0         0         
1      749       779       30577     290       131       0         0         0         0         0         
1      503       715       30577     52        131       0         0         0         0         0         
2      841       604       30577     290       189       0         0         0         0         0         
3      859       1198      30578     290       84        0         0         0         0         0         
1      725       627       30578     290       189       0         0         0         0         0         
1      859       651       30578     290       189       0         0         0         0         0         
1      694       698       30578     189       189       0         0         0         0         0         
1      669       640       30578     280       131       0         0         0         0         0         
1      374       558       30578     119       189       0         0         0         0         0         
1      199       285       30578     178       299       0         0         0         0         0         
1      233       675       30578     206       189       0         0         0         0         0         
1      249       624       30578     266       189       0         0         0         0         0         
2      506       769       30578     189       290       0         0         0         0         0         
1      476       692       30578     52        280       0         0         0         0         0         
1      579       915       30578     189       291       0         0         0         0         0         
1      905       527       30578     290       52        0         0         0         0         0         
3      859       1198      30578     290       84        0         0         0         0         0         
1      374       10        30578     119       98        0         0         0         0         0         
1      1044      850       30578     291       291       0         0         0         0         0         
1      433       534       30578     52        199       0         0         0         0         0         
1      597       554       30578     131       189       0         0         0         0         0         
1      738       408       30579     189       299       0         0         0         0         0         
1      969       604       30579     290       189       0         0         0         0         0         
1      1036      575       30580     84        189       0         0         0         0         0         
1      916       651       30580     291       189       0         0         0         0         0         
1      837       545       30580     290       52        0         0         0         0         0         
1      557       481       30580     189       189       0         0         0         0         0         
1      441       693       30580     168       280       0         0         0         0         0         
1      603       696       30580     189       189       0         0         0         0         0         
1      905       905       30581     290       290       0         0         0         0         0         
1      292       388       30581     87        299       0         0         0         0         0         
1      305       247       30581     299       266       0         0         0         0         0         
1      881       827       30581     290       291       0         0         0         0         0         
1      903       1001      30582     290       291       0         0         0         0         0         
1      464       886       30582     168       290       0         0         0         0         0         
1      580       461       30582     189       189       0         0         0         0         0         
1      530       672       30582     189       189       0         0         0         0         0         
1      512       48        30582     199       98        0         0         0         0         0         
1      285       118       30582     299       286       0         0         0         0         0         
4      287       287       30582     299       299       0         0         0         0         0         
3      277       48        30582     87        98        0         0         0         0         0         
3      277       48        30582     87        98        0         0         0         0         0         
3      770       630       30582     290       189       0         0         0         0         0         
2      770       630       30582     290       189       0         0         0         0         0         
1      328       232       30582     299       266       0         0         0         0         0         
2      1128      983       30582     291       291       0         0         0         0         0         
1      479       698       30583     52        189       0         0         0         0         0         
1      152       252       30583     9         206       0         0         0         0         0         
1      782       602       30583     291       189       0         0         0         0         0         
1      675       47        30583     189       98        0         0         0         0         0         
1      817       625       30584     290       189       0         0         0         0         0         
1      330       116       30584     127       9         0         0         0         0         0         
3      304       348       30584     299       299       0         0         0         0         0         
2      688       485       30584     131       189       0         0         0         0         0         
1      485       603       30584     189       189       0         0         0         0         0         
1      747       509       30584     290       199       0         0         0         0         0         
1      1048      727       30585     291       290       0         0         0         0         0         
1      466       671       30585     199       280       0         0         0         0         0         
1      675       48        30586     189       98        0         0         0         0         0         
1      693       616       30586     280       131       0         0         0         0         0         
1      216       652       30586     178       189       0         0         0         0         0         
1      793       418       30586     290       168       0         0         0         0         0         
2      948       940       30587     290       291       0         0         0         0         0         
3      948       940       30587     290       291       0         0         0         0         0         
1      579       531       30587     189       189       0         0         0         0         0         
1      551       377       30587     189       168       0         0         0         0         0         
1      579       697       30587     189       189       0         0         0         0         0         
1      527       234       30588     52        87        0         0         0         0         0         
1      772       397       30588     290       168       0         0         0         0         0         
1      535       505       30588     189       52        0         0         0         0         0         
1      772       693       30588     290       280       0         0         0         0         0         
3      308       600       30589     127       280       0         0         0         0         0         
3      308       600       30589     127       280       0         0         0         0         0         
1      739       726       30589     189       290       0         0         0         0         0         
1      66        83        30589     98        98        0         0         0         0         0         
1      1058      399       30589     84        168       0         0         0         0         0         
1      550       669       30589     189       280       0         0         0         0         0         
3      420       254       30589     168       87        0         0         0         0         0         
1      415       437       30589     100       100       0         0         0         0         0         
1      949       790       30590     290       290       0         0         0         0         0         
1      972       553       30590     290       189       0         0         0         0         0         
1      647       710       30590     280       131       0         0         0         0         0         
1      333       581       30590     119       189       0         0         0         0         0         
1      597       720       30590     131       290       0         0         0         0         0         
1      654       582       30590     189       189       0         0         0         0         0         
1      1025      1032      30591     291       84        0         0         0         0         0         
1      1043      647       30591     291       280       0         0         0         0         0         
1      696       534       30591     189       199       0         0         0         0         0         
1      940       737       30591     291       189       0         0         0         0         0         
1      560       836       30592     189       290       0         0         0         0         0         
1      579       697       30592     189       189       0         0         0         0         0         
1      369       247       30592     52        266       0         0         0         0         0         
1      663       1339      30592     131       129       0         0         0         0         0         
1      983       827       30593     291       291       0         0         0         0         0         
1      598       647       30593     189       280       0         0         0         0         0         
3      655       557       30593     189       189       0         0         0         0         0         
1      908       626       30593     290       189       0         0         0         0         0         
1      981       812       30593     291       290       0         0         0         0         0         
1      691       651       30593     131       189       0         0         0         0         0         
1      527       720       30593     52        290       0         0         0         0         0         
3      716       116       30594     189       9         0         0         0         0         0         
2      716       116       30594     189       9         0         0         0         0         0         
2      78        170       30594     9         286       0         0         0         0         0         
1      882       1025      30594     290       291       0         0         0         0         0         
1      398       408       30594     168       299       0         0         0         0         0         
2      924       990       30594     290       290       0         0         0         0         0         
1      436       736       30594     100       131       0         0         0         0         0         
4      369       553       30594     52        189       0         0         0         0         0         
1      1090      549       30595     291       52        0         0         0         0         0         
1      579       696       30595     189       189       0         0         0         0         0         
1      916       761       30595     291       50        0         0         0         0         0         
1      619       544       30596     131       52        0         0         0         0         0         
1      826       534       30596     291       199       0         0         0         0         0         
1      236       747       30596     87        290       0         0         0         0         0         
1      811       805       30596     290       291       0         0         0         0         0         
4      860       1011      30596     290       84        0         0         0         0         0         
2      556       552       30597     199       189       0         0         0         0         0         
1      906       408       30597     290       299       0         0         0         0         0         
1      703       768       30597     290       290       0         0         0         0         0         
3      556       552       30597     199       189       0         0         0         0         0         
1      256       97        30598     87        9         0         0         0         0         0         
1      847       718       30598     291       189       0         0         0         0         0         
2      420       35        30598     168       98        0         0         0         0         0         
1      332       335       30598     87        119       0         0         0         0         0         
1      134       691       30599     9         131       0         0         0         0         0         
1      484       675       30599     189       189       0         0         0         0         0         
4      579       646       30599     189       280       0         0         0         0         0         
1      458       602       30599     52        189       0         0         0         0         0         
2      325       249       30599     299       266       0         0         0         0         0         
